n = 40;
lu = [|-1443, -429
      |1251, 1523
      |-1011, 294
      |-85, 1151
      |-1206, 1260
      |256, 852
      |440, 894
      |-1522, 505
      |171, 761
      |-75, 957
      |640, 1493
      |13, 177
      |-1364, -879
      |-1161, -1090
      |-972, -61
      |-1208, -943
      |431, 498
      |-1073, 1563
      |-16, 846
      |-487, 475
      |-856, 755
      |-1340, -57
      |-1400, 772
      |-1350, -836
      |-1349, -922
      |-473, -387
      |-1285, 539
      |-1178, 953
      |793, 1078
      |1061, 1182
      |-1350, -1215
      |273, 950
      |1050, 1363
      |-248, -244
      |566, 1120
      |197, 1271
      |-1083, -917
      |-1272, 1598
      |-1395, -292
      |-502, 822|];
